peakDumbCharging = 11100; 
Machine = anon_enum(16); 
machineSpeed = [3700,3700,3700,3700,3700,3700,3700,3700,3700,3700,3700,3700,3700,3700,3700,3700]; 
machineLoad = [3700,3700,3700,3700,3700,3700,3700,3700,3700,3700,3700,3700,3700,3700,3700,3700]; 
Car = anon_enum(7); 
demandCar = [25360,40240,10520,10920,3400,14920,27960]; 
arrivalCar = [72,63,58,57,50,50,42]; 
departureCar = [81,82,62,62,55,56,51]; 
